6333.0
[1, 1, 0, 0, 0, 1, 1, 0, 1, 1, 0, 0, 1, 1, 0, 1, 0, 1, 0, 1]
[0, 0, 1, 0, 0, 0, 1, 1, 1, 1, 0, 1, 0, 5, 1, 5, 5, 5, 5, 5, 5, 5, 5, 5, 6, 6, 6, 6, 6, 6, 6, 8, 8, 8, 8, 8, 9, 9, 9, 9, 9, 9, 12, 12, 12, 8, 8, 8, 13, 13, 12, 13, 13, 12, 13, 15, 15, 12, 15, 13, 0, 15, 15, 15, 15, 17, 17, 17, 17, 17, 17, 17, 17, 19, 19, 19, 19, 19, 19, 19]